200
0 18 23 6 55 49 70 72 66 161 
39 71 56 127 147 15 167 60 83 41 
25 182 5 143 32 117 109 84 116 169 
142 82 193 11 87 10 51 47 126 148 
43 180 114 110 86 120 64 94 123 129 
197 4 139 33 78 99 170 42 81 195 
53 9 38 144 96 52 17 77 159 68 
145 176 149 24 100 196 113 31 119 35 
3 168 150 34 152 12 155 13 141 136 
153 186 37 146 40 106 30 157 166 158 
137 21 27 74 173 65 1 189 90 16 
57 177 192 190 184 191 165 179 98 67 
124 172 69 102 44 121 79 198 103 59 
160 88 76 175 29 138 134 115 130 122 
50 62 133 20 45 194 151 28 131 164 
199 91 105 185 89 183 107 54 26 63 
46 132 111 36 178 80 108 92 135 101 
95 154 93 125 75 14 48 104 118 2 
73 156 188 162 128 171 19 174 85 8 
140 187 22 61 7 58 97 163 112 181 
